164
0 102 125 105 31 153 50 56 108 5 
17 93 25 141 49 140 35 74 113 136 
91 48 130 58 90 22 83 152 52 116 
26 162 94 86 2 62 63 73 27 110 
55 99 139 145 37 10 163 89 64 79 
157 126 119 146 121 81 43 137 38 57 
115 160 24 128 78 114 98 11 70 132 
104 19 92 8 75 15 32 77 69 44 
96 133 12 67 111 7 149 65 154 60 
84 47 76 131 100 127 53 88 143 20 
80 4 122 138 120 142 18 117 95 112 
14 45 6 158 71 97 118 41 42 21 
151 36 129 39 147 107 103 87 85 59 
72 3 28 61 106 159 30 135 54 68 
155 34 156 51 1 46 13 16 101 109 
144 66 9 150 29 23 123 82 134 40 
148 124 161 33 
